Instance name : lrc108
Authors       : Geir Hasle, Oddvar Kloster
Date          : 28.02.2003 01:13:08
Reference     : Chapter in G. Hasle, K-A Lie, E. Quak (eds): Geometric Modelling, Numerical Simulation, and Optimization. ISBN 978-3-540-68782-5, Springer 2007.
Solution
Route  1 : 64 51 76 89 18 48 19 20 101 66
Route  2 : 65 83 57 24 22 49 21 23 25 77
Route  3 : 41 42 44 43 40 38 37 35 36 39
Route  4 : 12 14 47 17 16 15 13 9 11 10
Route  5 : 92 95 102 67 62 50 63 85 84 56 91 80
Route  6 : 98 78 73 79 8 46 5 3 1 103 45 4
Route  7 : 69 88 61 81 94 71 72 54 96 68
Route  8 : 82 99 52 86 87 59 97 75 58 74
Route  9 : 33 32 30 28 26 27 29 31 34 93
Route  10 : 90 53 60 7 104 6 2 70 100 55
